# Objective value = -967
x_Balaena_Balaenoptera 0
x_Balaena_Balaenoptera_Mus. 0
x_Balaena_Berardius 0
x_Balaena_Cephalorhynchus 0
x_Balaena_Delphinapterus 0
x_Balaena_Delphinus 0
x_Balaena_Eschrichtius 0
x_Balaena_Eubalaena 1
x_Balaena_Globicephala 0
x_Balaena_Grampus 0
x_Balaena_Hyperoodon 0
x_Balaena_Inia 0
x_Balaena_Kogia 0
x_Balaena_Lagenorhynchus 0
x_Balaena_Lipotes 0
x_Balaena_Lissodelphis 0
x_Balaena_Megaptera 0
x_Balaena_Mesoplodon 0
x_Balaena_Monodon 0
x_Balaena_Neopbalaena 1
x_Balaena_Neopbocaena 0
x_Balaena_Orcaella 0
x_Balaena_Orcinus 0
x_Balaena_Phocaena 0
x_Balaena_Physeter 0
x_Balaena_Platanista 0
x_Balaena_Pseudorca 0
x_Balaena_Sotalia 0
x_Balaena_Sousa 0
x_Balaena_Stenella 0
x_Balaena_Steno 0
x_Balaena_Stenodelphis 0
x_Balaena_Tasmacetus 0
x_Balaena_Tursiops 0
x_Balaena_Ziphius 0
x_Balaenoptera_Balaenoptera_Mus. 1
x_Balaenoptera_Berardius 0
x_Balaenoptera_Cephalorhynchus 0
x_Balaenoptera_Delphinapterus 0
x_Balaenoptera_Delphinus 0
x_Balaenoptera_Eschrichtius 1
x_Balaenoptera_Eubalaena 0
x_Balaenoptera_Globicephala 0
x_Balaenoptera_Grampus 0
x_Balaenoptera_Hyperoodon 0
x_Balaenoptera_Inia 0
x_Balaenoptera_Kogia 0
x_Balaenoptera_Lagenorhynchus 0
x_Balaenoptera_Lipotes 0
x_Balaenoptera_Lissodelphis 0
x_Balaenoptera_Megaptera 1
x_Balaenoptera_Mesoplodon 0
x_Balaenoptera_Monodon 0
x_Balaenoptera_Neopbalaena 0
x_Balaenoptera_Neopbocaena 0
x_Balaenoptera_Orcaella 0
x_Balaenoptera_Orcinus 0
x_Balaenoptera_Phocaena 0
x_Balaenoptera_Physeter 0
x_Balaenoptera_Platanista 0
x_Balaenoptera_Pseudorca 0
x_Balaenoptera_Sotalia 0
x_Balaenoptera_Sousa 0
x_Balaenoptera_Stenella 0
x_Balaenoptera_Steno 0
x_Balaenoptera_Stenodelphis 0
x_Balaenoptera_Tasmacetus 0
x_Balaenoptera_Tursiops 0
x_Balaenoptera_Ziphius 0
x_Balaenoptera_Mus._Berardius 0
x_Balaenoptera_Mus._Cephalorhynchus 0
x_Balaenoptera_Mus._Delphinapterus 0
x_Balaenoptera_Mus._Delphinus 0
x_Balaenoptera_Mus._Eschrichtius 1
x_Balaenoptera_Mus._Eubalaena 0
x_Balaenoptera_Mus._Globicephala 0
x_Balaenoptera_Mus._Grampus 0
x_Balaenoptera_Mus._Hyperoodon 0
x_Balaenoptera_Mus._Inia 0
x_Balaenoptera_Mus._Kogia 0
x_Balaenoptera_Mus._Lagenorhynchus 0
x_Balaenoptera_Mus._Lipotes 0
x_Balaenoptera_Mus._Lissodelphis 0
x_Balaenoptera_Mus._Megaptera 1
x_Balaenoptera_Mus._Mesoplodon 0
x_Balaenoptera_Mus._Monodon 0
x_Balaenoptera_Mus._Neopbalaena 0
x_Balaenoptera_Mus._Neopbocaena 0
x_Balaenoptera_Mus._Orcaella 0
x_Balaenoptera_Mus._Orcinus 0
x_Balaenoptera_Mus._Phocaena 0
x_Balaenoptera_Mus._Physeter 0
x_Balaenoptera_Mus._Platanista 0
x_Balaenoptera_Mus._Pseudorca 0
x_Balaenoptera_Mus._Sotalia 0
x_Balaenoptera_Mus._Sousa 0
x_Balaenoptera_Mus._Stenella 0
x_Balaenoptera_Mus._Steno 0
x_Balaenoptera_Mus._Stenodelphis 0
x_Balaenoptera_Mus._Tasmacetus 0
x_Balaenoptera_Mus._Tursiops 0
x_Balaenoptera_Mus._Ziphius 0
x_Berardius_Cephalorhynchus 0
x_Berardius_Delphinapterus 0
x_Berardius_Delphinus 0
x_Berardius_Eschrichtius 0
x_Berardius_Eubalaena 0
x_Berardius_Globicephala 0
x_Berardius_Grampus 0
x_Berardius_Hyperoodon 1
x_Berardius_Inia 0
x_Berardius_Kogia 0
x_Berardius_Lagenorhynchus 0
x_Berardius_Lipotes 0
x_Berardius_Lissodelphis 0
x_Berardius_Megaptera 0
x_Berardius_Mesoplodon 1
x_Berardius_Monodon 0
x_Berardius_Neopbalaena 0
x_Berardius_Neopbocaena 0
x_Berardius_Orcaella 0
x_Berardius_Orcinus 0
x_Berardius_Phocaena 0
x_Berardius_Physeter 0
x_Berardius_Platanista 0
x_Berardius_Pseudorca 0
x_Berardius_Sotalia 0
x_Berardius_Sousa 0
x_Berardius_Stenella 0
x_Berardius_Steno 0
x_Berardius_Stenodelphis 0
x_Berardius_Tasmacetus 1
x_Berardius_Tursiops 0
x_Berardius_Ziphius 1
x_Cephalorhynchus_Delphinapterus 0
x_Cephalorhynchus_Delphinus 1
x_Cephalorhynchus_Eschrichtius 0
x_Cephalorhynchus_Eubalaena 0
x_Cephalorhynchus_Globicephala 1
x_Cephalorhynchus_Grampus 1
x_Cephalorhynchus_Hyperoodon 0
x_Cephalorhynchus_Inia 0
x_Cephalorhynchus_Kogia 0
x_Cephalorhynchus_Lagenorhynchus 1
x_Cephalorhynchus_Lipotes 0
x_Cephalorhynchus_Lissodelphis 1
x_Cephalorhynchus_Megaptera 0
x_Cephalorhynchus_Mesoplodon 0
x_Cephalorhynchus_Monodon 0
x_Cephalorhynchus_Neopbalaena 0
x_Cephalorhynchus_Neopbocaena 1
x_Cephalorhynchus_Orcaella 1
x_Cephalorhynchus_Orcinus 1
x_Cephalorhynchus_Phocaena 1
x_Cephalorhynchus_Physeter 0
x_Cephalorhynchus_Platanista 0
x_Cephalorhynchus_Pseudorca 1
x_Cephalorhynchus_Sotalia 1
x_Cephalorhynchus_Sousa 1
x_Cephalorhynchus_Stenella 1
x_Cephalorhynchus_Steno 1
x_Cephalorhynchus_Stenodelphis 0
x_Cephalorhynchus_Tasmacetus 0
x_Cephalorhynchus_Tursiops 1
x_Cephalorhynchus_Ziphius 0
x_Delphinapterus_Delphinus 0
x_Delphinapterus_Eschrichtius 0
x_Delphinapterus_Eubalaena 0
x_Delphinapterus_Globicephala 0
x_Delphinapterus_Grampus 0
x_Delphinapterus_Hyperoodon 0
x_Delphinapterus_Inia 0
x_Delphinapterus_Kogia 0
x_Delphinapterus_Lagenorhynchus 0
x_Delphinapterus_Lipotes 0
x_Delphinapterus_Lissodelphis 0
x_Delphinapterus_Megaptera 0
x_Delphinapterus_Mesoplodon 0
x_Delphinapterus_Monodon 1
x_Delphinapterus_Neopbalaena 0
x_Delphinapterus_Neopbocaena 0
x_Delphinapterus_Orcaella 0
x_Delphinapterus_Orcinus 0
x_Delphinapterus_Phocaena 0
x_Delphinapterus_Physeter 0
x_Delphinapterus_Platanista 0
x_Delphinapterus_Pseudorca 0
x_Delphinapterus_Sotalia 0
x_Delphinapterus_Sousa 0
x_Delphinapterus_Stenella 0
x_Delphinapterus_Steno 0
x_Delphinapterus_Stenodelphis 0
x_Delphinapterus_Tasmacetus 0
x_Delphinapterus_Tursiops 0
x_Delphinapterus_Ziphius 0
x_Delphinus_Eschrichtius 0
x_Delphinus_Eubalaena 0
x_Delphinus_Globicephala 1
x_Delphinus_Grampus 1
x_Delphinus_Hyperoodon 0
x_Delphinus_Inia 0
x_Delphinus_Kogia 0
x_Delphinus_Lagenorhynchus 1
x_Delphinus_Lipotes 0
x_Delphinus_Lissodelphis 1
x_Delphinus_Megaptera 0
x_Delphinus_Mesoplodon 0
x_Delphinus_Monodon 0
x_Delphinus_Neopbalaena 0
x_Delphinus_Neopbocaena 1
x_Delphinus_Orcaella 1
x_Delphinus_Orcinus 1
x_Delphinus_Phocaena 1
x_Delphinus_Physeter 0
x_Delphinus_Platanista 0
x_Delphinus_Pseudorca 1
x_Delphinus_Sotalia 1
x_Delphinus_Sousa 1
x_Delphinus_Stenella 1
x_Delphinus_Steno 1
x_Delphinus_Stenodelphis 0
x_Delphinus_Tasmacetus 0
x_Delphinus_Tursiops 1
x_Delphinus_Ziphius 0
x_Eschrichtius_Eubalaena 0
x_Eschrichtius_Globicephala 0
x_Eschrichtius_Grampus 0
x_Eschrichtius_Hyperoodon 0
x_Eschrichtius_Inia 0
x_Eschrichtius_Kogia 0
x_Eschrichtius_Lagenorhynchus 0
x_Eschrichtius_Lipotes 0
x_Eschrichtius_Lissodelphis 0
x_Eschrichtius_Megaptera 1
x_Eschrichtius_Mesoplodon 0
x_Eschrichtius_Monodon 0
x_Eschrichtius_Neopbalaena 0
x_Eschrichtius_Neopbocaena 0
x_Eschrichtius_Orcaella 0
x_Eschrichtius_Orcinus 0
x_Eschrichtius_Phocaena 0
x_Eschrichtius_Physeter 0
x_Eschrichtius_Platanista 0
x_Eschrichtius_Pseudorca 0
x_Eschrichtius_Sotalia 0
x_Eschrichtius_Sousa 0
x_Eschrichtius_Stenella 0
x_Eschrichtius_Steno 0
x_Eschrichtius_Stenodelphis 0
x_Eschrichtius_Tasmacetus 0
x_Eschrichtius_Tursiops 0
x_Eschrichtius_Ziphius 0
x_Eubalaena_Globicephala 0
x_Eubalaena_Grampus 0
x_Eubalaena_Hyperoodon 0
x_Eubalaena_Inia 0
x_Eubalaena_Kogia 0
x_Eubalaena_Lagenorhynchus 0
x_Eubalaena_Lipotes 0
x_Eubalaena_Lissodelphis 0
x_Eubalaena_Megaptera 0
x_Eubalaena_Mesoplodon 0
x_Eubalaena_Monodon 0
x_Eubalaena_Neopbalaena 1
x_Eubalaena_Neopbocaena 0
x_Eubalaena_Orcaella 0
x_Eubalaena_Orcinus 0
x_Eubalaena_Phocaena 0
x_Eubalaena_Physeter 0
x_Eubalaena_Platanista 0
x_Eubalaena_Pseudorca 0
x_Eubalaena_Sotalia 0
x_Eubalaena_Sousa 0
x_Eubalaena_Stenella 0
x_Eubalaena_Steno 0
x_Eubalaena_Stenodelphis 0
x_Eubalaena_Tasmacetus 0
x_Eubalaena_Tursiops 0
x_Eubalaena_Ziphius 0
x_Globicephala_Grampus 1
x_Globicephala_Hyperoodon 0
x_Globicephala_Inia 0
x_Globicephala_Kogia 0
x_Globicephala_Lagenorhynchus 1
x_Globicephala_Lipotes 0
x_Globicephala_Lissodelphis 1
x_Globicephala_Megaptera 0
x_Globicephala_Mesoplodon 0
x_Globicephala_Monodon 0
x_Globicephala_Neopbalaena 0
x_Globicephala_Neopbocaena 1
x_Globicephala_Orcaella 1
x_Globicephala_Orcinus 1
x_Globicephala_Phocaena 1
x_Globicephala_Physeter 0
x_Globicephala_Platanista 0
x_Globicephala_Pseudorca 1
x_Globicephala_Sotalia 1
x_Globicephala_Sousa 1
x_Globicephala_Stenella 1
x_Globicephala_Steno 1
x_Globicephala_Stenodelphis 0
x_Globicephala_Tasmacetus 0
x_Globicephala_Tursiops 1
x_Globicephala_Ziphius 0
x_Grampus_Hyperoodon 0
x_Grampus_Inia 0
x_Grampus_Kogia 0
x_Grampus_Lagenorhynchus 1
x_Grampus_Lipotes 0
x_Grampus_Lissodelphis 1
x_Grampus_Megaptera 0
x_Grampus_Mesoplodon 0
x_Grampus_Monodon 0
x_Grampus_Neopbalaena 0
x_Grampus_Neopbocaena 1
x_Grampus_Orcaella 1
x_Grampus_Orcinus 1
x_Grampus_Phocaena 1
x_Grampus_Physeter 0
x_Grampus_Platanista 0
x_Grampus_Pseudorca 1
x_Grampus_Sotalia 1
x_Grampus_Sousa 1
x_Grampus_Stenella 1
x_Grampus_Steno 1
x_Grampus_Stenodelphis 0
x_Grampus_Tasmacetus 0
x_Grampus_Tursiops 1
x_Grampus_Ziphius 0
x_Hyperoodon_Inia 0
x_Hyperoodon_Kogia 0
x_Hyperoodon_Lagenorhynchus 0
x_Hyperoodon_Lipotes 0
x_Hyperoodon_Lissodelphis 0
x_Hyperoodon_Megaptera 0
x_Hyperoodon_Mesoplodon 1
x_Hyperoodon_Monodon 0
x_Hyperoodon_Neopbalaena 0
x_Hyperoodon_Neopbocaena 0
x_Hyperoodon_Orcaella 0
x_Hyperoodon_Orcinus 0
x_Hyperoodon_Phocaena 0
x_Hyperoodon_Physeter 0
x_Hyperoodon_Platanista 0
x_Hyperoodon_Pseudorca 0
x_Hyperoodon_Sotalia 0
x_Hyperoodon_Sousa 0
x_Hyperoodon_Stenella 0
x_Hyperoodon_Steno 0
x_Hyperoodon_Stenodelphis 0
x_Hyperoodon_Tasmacetus 1
x_Hyperoodon_Tursiops 0
x_Hyperoodon_Ziphius 1
x_Inia_Kogia 0
x_Inia_Lagenorhynchus 0
x_Inia_Lipotes 1
x_Inia_Lissodelphis 0
x_Inia_Megaptera 0
x_Inia_Mesoplodon 0
x_Inia_Monodon 0
x_Inia_Neopbalaena 0
x_Inia_Neopbocaena 0
x_Inia_Orcaella 0
x_Inia_Orcinus 0
x_Inia_Phocaena 0
x_Inia_Physeter 0
x_Inia_Platanista 1
x_Inia_Pseudorca 0
x_Inia_Sotalia 0
x_Inia_Sousa 0
x_Inia_Stenella 0
x_Inia_Steno 0
x_Inia_Stenodelphis 1
x_Inia_Tasmacetus 0
x_Inia_Tursiops 0
x_Inia_Ziphius 0
x_Kogia_Lagenorhynchus 0
x_Kogia_Lipotes 0
x_Kogia_Lissodelphis 0
x_Kogia_Megaptera 0
x_Kogia_Mesoplodon 0
x_Kogia_Monodon 0
x_Kogia_Neopbalaena 0
x_Kogia_Neopbocaena 0
x_Kogia_Orcaella 0
x_Kogia_Orcinus 0
x_Kogia_Phocaena 0
x_Kogia_Physeter 1
x_Kogia_Platanista 0
x_Kogia_Pseudorca 0
x_Kogia_Sotalia 0
x_Kogia_Sousa 0
x_Kogia_Stenella 0
x_Kogia_Steno 0
x_Kogia_Stenodelphis 0
x_Kogia_Tasmacetus 0
x_Kogia_Tursiops 0
x_Kogia_Ziphius 0
x_Lagenorhynchus_Lipotes 0
x_Lagenorhynchus_Lissodelphis 1
x_Lagenorhynchus_Megaptera 0
x_Lagenorhynchus_Mesoplodon 0
x_Lagenorhynchus_Monodon 0
x_Lagenorhynchus_Neopbalaena 0
x_Lagenorhynchus_Neopbocaena 1
x_Lagenorhynchus_Orcaella 1
x_Lagenorhynchus_Orcinus 1
x_Lagenorhynchus_Phocaena 1
x_Lagenorhynchus_Physeter 0
x_Lagenorhynchus_Platanista 0
x_Lagenorhynchus_Pseudorca 1
x_Lagenorhynchus_Sotalia 1
x_Lagenorhynchus_Sousa 1
x_Lagenorhynchus_Stenella 1
x_Lagenorhynchus_Steno 1
x_Lagenorhynchus_Stenodelphis 0
x_Lagenorhynchus_Tasmacetus 0
x_Lagenorhynchus_Tursiops 1
x_Lagenorhynchus_Ziphius 0
x_Lipotes_Lissodelphis 0
x_Lipotes_Megaptera 0
x_Lipotes_Mesoplodon 0
x_Lipotes_Monodon 0
x_Lipotes_Neopbalaena 0
x_Lipotes_Neopbocaena 0
x_Lipotes_Orcaella 0
x_Lipotes_Orcinus 0
x_Lipotes_Phocaena 0
x_Lipotes_Physeter 0
x_Lipotes_Platanista 1
x_Lipotes_Pseudorca 0
x_Lipotes_Sotalia 0
x_Lipotes_Sousa 0
x_Lipotes_Stenella 0
x_Lipotes_Steno 0
x_Lipotes_Stenodelphis 1
x_Lipotes_Tasmacetus 0
x_Lipotes_Tursiops 0
x_Lipotes_Ziphius 0
x_Lissodelphis_Megaptera 0
x_Lissodelphis_Mesoplodon 0
x_Lissodelphis_Monodon 0
x_Lissodelphis_Neopbalaena 0
x_Lissodelphis_Neopbocaena 1
x_Lissodelphis_Orcaella 1
x_Lissodelphis_Orcinus 1
x_Lissodelphis_Phocaena 1
x_Lissodelphis_Physeter 0
x_Lissodelphis_Platanista 0
x_Lissodelphis_Pseudorca 1
x_Lissodelphis_Sotalia 1
x_Lissodelphis_Sousa 1
x_Lissodelphis_Stenella 1
x_Lissodelphis_Steno 1
x_Lissodelphis_Stenodelphis 0
x_Lissodelphis_Tasmacetus 0
x_Lissodelphis_Tursiops 1
x_Lissodelphis_Ziphius 0
x_Megaptera_Mesoplodon 0
x_Megaptera_Monodon 0
x_Megaptera_Neopbalaena 0
x_Megaptera_Neopbocaena 0
x_Megaptera_Orcaella 0
x_Megaptera_Orcinus 0
x_Megaptera_Phocaena 0
x_Megaptera_Physeter 0
x_Megaptera_Platanista 0
x_Megaptera_Pseudorca 0
x_Megaptera_Sotalia 0
x_Megaptera_Sousa 0
x_Megaptera_Stenella 0
x_Megaptera_Steno 0
x_Megaptera_Stenodelphis 0
x_Megaptera_Tasmacetus 0
x_Megaptera_Tursiops 0
x_Megaptera_Ziphius 0
x_Mesoplodon_Monodon 0
x_Mesoplodon_Neopbalaena 0
x_Mesoplodon_Neopbocaena 0
x_Mesoplodon_Orcaella 0
x_Mesoplodon_Orcinus 0
x_Mesoplodon_Phocaena 0
x_Mesoplodon_Physeter 0
x_Mesoplodon_Platanista 0
x_Mesoplodon_Pseudorca 0
x_Mesoplodon_Sotalia 0
x_Mesoplodon_Sousa 0
x_Mesoplodon_Stenella 0
x_Mesoplodon_Steno 0
x_Mesoplodon_Stenodelphis 0
x_Mesoplodon_Tasmacetus 1
x_Mesoplodon_Tursiops 0
x_Mesoplodon_Ziphius 1
x_Monodon_Neopbalaena 0
x_Monodon_Neopbocaena 0
x_Monodon_Orcaella 0
x_Monodon_Orcinus 0
x_Monodon_Phocaena 0
x_Monodon_Physeter 0
x_Monodon_Platanista 0
x_Monodon_Pseudorca 0
x_Monodon_Sotalia 0
x_Monodon_Sousa 0
x_Monodon_Stenella 0
x_Monodon_Steno 0
x_Monodon_Stenodelphis 0
x_Monodon_Tasmacetus 0
x_Monodon_Tursiops 0
x_Monodon_Ziphius 0
x_Neopbalaena_Neopbocaena 0
x_Neopbalaena_Orcaella 0
x_Neopbalaena_Orcinus 0
x_Neopbalaena_Phocaena 0
x_Neopbalaena_Physeter 0
x_Neopbalaena_Platanista 0
x_Neopbalaena_Pseudorca 0
x_Neopbalaena_Sotalia 0
x_Neopbalaena_Sousa 0
x_Neopbalaena_Stenella 0
x_Neopbalaena_Steno 0
x_Neopbalaena_Stenodelphis 0
x_Neopbalaena_Tasmacetus 0
x_Neopbalaena_Tursiops 0
x_Neopbalaena_Ziphius 0
x_Neopbocaena_Orcaella 1
x_Neopbocaena_Orcinus 1
x_Neopbocaena_Phocaena 1
x_Neopbocaena_Physeter 0
x_Neopbocaena_Platanista 0
x_Neopbocaena_Pseudorca 1
x_Neopbocaena_Sotalia 1
x_Neopbocaena_Sousa 1
x_Neopbocaena_Stenella 1
x_Neopbocaena_Steno 1
x_Neopbocaena_Stenodelphis 0
x_Neopbocaena_Tasmacetus 0
x_Neopbocaena_Tursiops 1
x_Neopbocaena_Ziphius 0
x_Orcaella_Orcinus 1
x_Orcaella_Phocaena 1
x_Orcaella_Physeter 0
x_Orcaella_Platanista 0
x_Orcaella_Pseudorca 1
x_Orcaella_Sotalia 1
x_Orcaella_Sousa 1
x_Orcaella_Stenella 1
x_Orcaella_Steno 1
x_Orcaella_Stenodelphis 0
x_Orcaella_Tasmacetus 0
x_Orcaella_Tursiops 1
x_Orcaella_Ziphius 0
x_Orcinus_Phocaena 1
x_Orcinus_Physeter 0
x_Orcinus_Platanista 0
x_Orcinus_Pseudorca 1
x_Orcinus_Sotalia 1
x_Orcinus_Sousa 1
x_Orcinus_Stenella 1
x_Orcinus_Steno 1
x_Orcinus_Stenodelphis 0
x_Orcinus_Tasmacetus 0
x_Orcinus_Tursiops 1
x_Orcinus_Ziphius 0
x_Phocaena_Physeter 0
x_Phocaena_Platanista 0
x_Phocaena_Pseudorca 1
x_Phocaena_Sotalia 1
x_Phocaena_Sousa 1
x_Phocaena_Stenella 1
x_Phocaena_Steno 1
x_Phocaena_Stenodelphis 0
x_Phocaena_Tasmacetus 0
x_Phocaena_Tursiops 1
x_Phocaena_Ziphius 0
x_Physeter_Platanista 0
x_Physeter_Pseudorca 0
x_Physeter_Sotalia 0
x_Physeter_Sousa 0
x_Physeter_Stenella 0
x_Physeter_Steno 0
x_Physeter_Stenodelphis 0
x_Physeter_Tasmacetus 0
x_Physeter_Tursiops 0
x_Physeter_Ziphius 0
x_Platanista_Pseudorca 0
x_Platanista_Sotalia 0
x_Platanista_Sousa 0
x_Platanista_Stenella 0
x_Platanista_Steno 0
x_Platanista_Stenodelphis 1
x_Platanista_Tasmacetus 0
x_Platanista_Tursiops 0
x_Platanista_Ziphius 0
x_Pseudorca_Sotalia 1
x_Pseudorca_Sousa 1
x_Pseudorca_Stenella 1
x_Pseudorca_Steno 1
x_Pseudorca_Stenodelphis 0
x_Pseudorca_Tasmacetus 0
x_Pseudorca_Tursiops 1
x_Pseudorca_Ziphius 0
x_Sotalia_Sousa 1
x_Sotalia_Stenella 1
x_Sotalia_Steno 1
x_Sotalia_Stenodelphis 0
x_Sotalia_Tasmacetus 0
x_Sotalia_Tursiops 1
x_Sotalia_Ziphius 0
x_Sousa_Stenella 1
x_Sousa_Steno 1
x_Sousa_Stenodelphis 0
x_Sousa_Tasmacetus 0
x_Sousa_Tursiops 1
x_Sousa_Ziphius 0
x_Stenella_Steno 1
x_Stenella_Stenodelphis 0
x_Stenella_Tasmacetus 0
x_Stenella_Tursiops 1
x_Stenella_Ziphius 0
x_Steno_Stenodelphis 0
x_Steno_Tasmacetus 0
x_Steno_Tursiops 1
x_Steno_Ziphius 0
x_Stenodelphis_Tasmacetus 0
x_Stenodelphis_Tursiops 0
x_Stenodelphis_Ziphius 0
x_Tasmacetus_Tursiops 0
x_Tasmacetus_Ziphius 1
x_Tursiops_Ziphius 0
